c clasp version 2.1.1
c Reading from pb_400_07.cnf
c Solving...
s UNKNOWN

c TIME LIMIT    : 1
c Models        : 0+    
c Time          : 18000.000s (Solving: 17997.31s 1st Model: 0.00s Unsat: 0.00s)
c CPU Time      : 17970.300s
c Choices       : 47701862
c Conflicts     : 28119604
c Restarts      : 19375  (Average: 1451.33 Last: 28119101)

c Variables     : 631879 (Eliminated: 200411 Frozen:    0)
c Constraints   : 833299 (Binary: 62.9% Ternary: 36.5% Other:  0.7%)
c Lemmas        : 28119603 (Binary:  0.0% Ternary:  0.0% Other: 99.9%)
c   Conflict    : 28119603 (Average Length: 134.1) 
c   Loop        : 0      (Average Length: 0.0) 
c   Other       : 0      (Average Length: 0.0)
c   Deleted     : 27979804
